
List of user-set options:

                                    Name   Value                used
                           compl_inf_tol = 1                     yes
                         constr_viol_tol = 1                     yes
                            dual_inf_tol = 1000                  yes
                           linear_solver = ma97                  yes
                              ma86_small = 1e-30                  no
                                  ma86_u = 0.0001                 no
                              ma97_order = best                  yes
                              ma97_small = 1e-30                 yes
                            ma97_switch1 = at_start              yes
                            ma97_switch2 = od_hd_reuse           yes
                                  ma97_u = 1e-06                 yes
                               ma97_umax = 0.5                   yes
                                max_iter = 2000                  yes
                    max_refinement_steps = 20                    yes
                    min_refinement_steps = 5                     yes
                                 mu_init = 1e-06                 yes
           mu_superlinear_decrease_power = 1.25                  yes
                   nlp_scaling_min_value = 1e-08                 yes
                        option_file_name = Preset_Case:_290_NCP.opt  yes
                             output_file = ./tmp/Preset_Case:_290_NCP.output  yes
                      print_user_options = yes                   yes
        required_infeasibility_reduction = 1                      no
                                     tol = 1e-08                 yes
                   warm_start_bound_frac = 1e-20                 yes
                   warm_start_bound_push = 1e-20                 yes
                   warm_start_init_point = yes                   yes
              warm_start_mult_bound_push = 1e-20                 yes
                warm_start_mult_init_max = 1e+40                 yes
             warm_start_slack_bound_frac = 1e-20                 yes
             warm_start_slack_bound_push = 1e-20                 yes

******************************************************************************
This program contains Ipopt, a library for large-scale nonlinear optimization.
 Ipopt is released as open source code under the Eclipse Public License (EPL).
         For more information visit http://projects.coin-or.org/Ipopt
******************************************************************************

This is Ipopt version 3.12.10, running with linear solver ma97.

Number of nonzeros in equality constraint Jacobian...:   117140
Number of nonzeros in inequality constraint Jacobian.:      213
Number of nonzeros in Lagrangian Hessian.............:    47462

Total number of variables............................:    29971
                     variables with only lower bounds:    11312
                variables with lower and upper bounds:    15132
                     variables with only upper bounds:        0
Total number of equality constraints.................:    29864
Total number of inequality constraints...............:       25
        inequality constraints with only lower bounds:        4
   inequality constraints with lower and upper bounds:        0
        inequality constraints with only upper bounds:       21

iter    objective    inf_pr   inf_du lg(mu)  ||d||  lg(rg) alpha_du alpha_pr  ls
   0 -2.2166883e-02 2.61e-01 1.18e+02  -6.0 0.00e+00    -  0.00e+00 0.00e+00   0
In iteration 0, 4 Slacks too small, adjusting variable bounds
   1 -2.2166883e-02 2.61e-01 1.36e+02  -6.0 1.10e+03   2.0 1.44e-08 2.96e-13f  1
In iteration 1, 1 Slack too small, adjusting variable bound
   2 -2.2166883e-02 2.61e-01 1.60e+03  -6.0 2.94e+02   1.5 3.76e-08 1.83e-12h  1
   3 -2.2166883e-02 2.61e-01 2.80e+03  -6.0 1.83e+03   1.0 2.13e-08 5.55e-09f  1
   4 -2.2166887e-02 2.61e-01 6.04e+03  -6.0 2.10e+03   0.6 1.93e-07 7.89e-08f  1
   5 -2.2166905e-02 2.61e-01 8.07e+03  -6.0 2.16e+03   0.1 6.57e-07 4.48e-07f  1
   6 -2.2167055e-02 2.61e-01 2.79e+03  -6.0 2.16e+03  -0.4 4.38e-07 3.79e-06f  1
   7 -2.2167607e-02 2.61e-01 4.70e+03  -6.0 2.16e+03  -0.9 1.23e-05 1.41e-05f  1
   8 -2.2168237e-02 2.61e-01 1.95e+03  -6.0 2.16e+03  -1.3 2.42e-05 1.65e-05f  1
   9 -2.2169911e-02 2.61e-01 3.60e+04  -6.0 2.16e+03  -0.9 6.96e-06 4.25e-05f  1
iter    objective    inf_pr   inf_du lg(mu)  ||d||  lg(rg) alpha_du alpha_pr  ls
  10 -2.2184245e-02 2.61e-01 1.02e+05  -6.0 2.16e+03  -1.4 1.52e-04 3.60e-04f  1
  11 -2.2189466e-02 2.61e-01 2.01e+05  -6.0 2.14e+03  -1.0 4.90e-04 1.25e-04h  1
  12 -2.2330814e-02 2.59e-01 7.70e+05  -6.0 2.13e+03  -1.4 5.40e-03 3.29e-03f  1
  13 -2.2330895e-02 2.59e-01 8.25e+05  -6.0 1.94e+03  -1.0 9.30e-05 1.62e-06h  2
  14 -2.2331152e-02 2.59e-01 9.64e+05  -6.0 1.90e+03  -1.5 8.16e-04 4.11e-06h  2
  15 -2.2336967e-02 2.59e-01 1.23e+06  -6.0 1.93e+03  -1.1 6.22e-04 1.16e-04h  1
  16 -2.2339032e-02 2.59e-01 1.56e+06  -6.0 1.88e+03  -1.5 2.31e-03 2.99e-05h  1
  17 -2.2341325e-02 2.59e-01 1.72e+06  -6.0 1.92e+03  -1.1 4.00e-04 4.50e-05h  1
  18 -2.2091808e-02 2.59e-01 1.63e+06  -6.0 1.84e+03  -1.6 1.64e-05 7.81e-04h  1
  19 -2.2089033e-02 2.59e-01 1.63e+06  -6.0 1.84e+03  -1.2 4.87e-06 4.33e-08h 17
iter    objective    inf_pr   inf_du lg(mu)  ||d||  lg(rg) alpha_du alpha_pr  ls
  20r-2.2089033e-02 2.59e-01 1.00e+03  -0.6 0.00e+00  -1.6 0.00e+00 3.22e-07R 12
  21r-2.1821624e-02 2.59e-01 2.60e+03  -0.6 3.34e+04    -  4.93e-07 8.93e-08f  1
  22r-2.1821624e-02 2.59e-01 9.99e+02  -0.6 0.00e+00    -  0.00e+00 2.10e-08R  2
  23r-2.1821001e-02 2.59e-01 1.31e+03  -0.6 1.80e+04    -  1.10e-06 6.62e-08f  1
  24 -2.1820831e-02 2.59e-01 4.98e+02  -6.0 9.73e+02    -  8.62e-03 1.73e-05h  1
  25 -2.1821334e-02 2.59e-01 4.18e+04  -6.0 1.74e+03    -  8.33e-04 1.09e-05h  1
  26 -2.1845409e-02 2.58e-01 1.83e+04  -6.0 1.73e+03    -  2.78e-07 5.34e-04h  2
  27 -2.1869750e-02 2.57e-01 2.39e+05  -6.0 1.69e+03    -  6.24e-03 5.15e-04h  1
  28 -2.1847021e-02 2.55e-01 2.82e+05  -6.0 1.79e+03    -  6.47e-03 1.44e-03h  3
  29 -2.1812328e-02 2.53e-01 2.80e+05  -6.0 1.74e+03    -  9.71e-04 1.69e-03h  3
iter    objective    inf_pr   inf_du lg(mu)  ||d||  lg(rg) alpha_du alpha_pr  ls
  30 -2.1786016e-02 2.52e-01 3.23e+05  -6.0 1.66e+03    -  8.88e-03 1.27e-03h  2
  31 -2.1754358e-02 2.50e-01 6.08e+05  -6.0 1.61e+03    -  1.20e-02 1.45e-03h  4
  32 -2.1720831e-02 2.48e-01 6.88e+05  -6.0 1.55e+03    -  4.52e-03 1.61e-03h  5
  33 -2.1684155e-02 2.45e-01 1.11e+06  -6.0 1.49e+03    -  1.66e-02 1.76e-03h  5
  34 -2.1660427e-02 2.44e-01 1.37e+06  -6.0 1.42e+03    -  1.03e-02 1.24e-03h  6
  35 -2.1637433e-02 2.42e-01 1.97e+06  -6.0 1.37e+03    -  2.14e-02 1.28e-03h  6
  36 -2.1617045e-02 2.40e-01 1.94e+06  -6.0 1.33e+03    -  2.01e-04 1.34e-03h  6
  37 -2.1600617e-02 2.38e-01 2.73e+06  -6.0 1.33e+03    -  2.65e-02 1.30e-03h  6
  38 -2.1075684e-02 1.81e+00 1.54e+06  -6.0 1.39e+03    -  6.02e-03 4.58e-02w  1
  39 -2.1076169e-02 1.81e+00 1.95e+06  -6.0 1.68e+03    -  1.37e-02 2.60e-05w  1
iter    objective    inf_pr   inf_du lg(mu)  ||d||  lg(rg) alpha_du alpha_pr  ls
  40 -2.1107014e-02 1.81e+00 3.28e+06  -6.0 1.68e+03    -  2.80e-02 1.69e-03w  1
  41 -2.1584213e-02 2.36e-01 2.87e+06  -6.0 1.71e+03    -  6.02e-03 1.43e-03h  5
  42 -2.1569655e-02 2.34e-01 3.79e+06  -6.0 1.40e+03    -  2.88e-02 1.44e-03h  6
  43 -2.1556725e-02 2.31e-01 4.18e+06  -6.0 1.47e+03    -  1.31e-02 1.86e-03h  5
  44 -2.1547121e-02 2.29e-01 5.42e+06  -6.0 1.51e+03    -  3.61e-02 1.70e-03h  5
  45 -2.1545586e-02 2.27e-01 7.02e+06  -6.0 1.59e+03    -  4.35e-02 1.68e-03h  5
  46 -2.1550744e-02 2.26e-01 9.16e+06  -6.0 1.70e+03    -  5.39e-02 1.07e-03h  6
  47 -2.1571899e-02 2.24e-01 1.20e+07  -6.0 1.84e+03    -  6.83e-02 1.91e-03h  5
  48 -2.3100276e-02 2.39e+00 1.07e+07  -6.0 2.04e+03    -  8.36e-02 8.83e-02h  1
  49 -2.3530144e-02 2.90e+00 1.06e+07  -6.0 1.70e+03    -  1.67e-02 6.26e-02h  1
iter    objective    inf_pr   inf_du lg(mu)  ||d||  lg(rg) alpha_du alpha_pr  ls
  50 -2.3541129e-02 2.90e+00 1.23e+07  -6.0 1.68e+03    -  1.26e-01 3.67e-04h  1
  51 -2.7063100e-02 6.36e+00 1.27e+07  -6.0 1.73e+03    -  4.64e-02 1.15e-01h  1
  52r-2.7063100e-02 6.36e+00 1.00e+03   0.4 0.00e+00    -  0.00e+00 3.21e-07R  2
  53r-2.7041919e-02 6.35e+00 1.63e+04   0.4 6.65e+03    -  2.53e-06 3.28e-07f  1
  54r-2.7041919e-02 6.35e+00 9.99e+02   0.4 0.00e+00    -  0.00e+00 3.68e-07R  4
  55r-2.7041437e-02 6.35e+00 2.03e+04   0.4 2.41e+04    -  2.33e-07 1.67e-08f  1
  56 -2.7040130e-02 6.35e+00 1.59e+06  -6.0 6.36e+02    -  1.91e-02 5.88e-05h  1
  57r-2.7040130e-02 6.35e+00 1.00e+03   0.4 0.00e+00    -  0.00e+00 1.01e-07R  2
  58r-2.6834764e-02 6.35e+00 6.32e+03   0.4 1.95e+06    -  1.10e-08 9.28e-09f  1
  59r-2.6834764e-02 6.35e+00 9.99e+02   0.4 0.00e+00    -  0.00e+00 2.78e-07R  4
iter    objective    inf_pr   inf_du lg(mu)  ||d||  lg(rg) alpha_du alpha_pr  ls
  60r-2.6834570e-02 6.35e+00 1.99e+04   0.4 2.36e+04    -  4.47e-07 8.33e-09f  1
  61 -2.6833981e-02 6.35e+00 2.78e+06  -6.0 6.38e+02    -  3.40e-02 2.98e-05h  1
  62 -2.6803012e-02 6.33e+00 3.31e+08  -6.0 8.79e+02    -  3.11e-05 3.69e-03h  1
  63 -2.6713263e-02 6.31e+00 3.29e+08  -6.0 9.09e+02    -  1.87e-03 4.00e-03h  1
  64 -2.6508352e-02 6.29e+00 3.29e+08  -6.0 7.78e+02    -  9.68e-03 2.11e-03h  1
  65 -2.5284435e-02 6.21e+00 3.24e+08  -6.0 7.91e+02    -  3.96e-03 1.45e-02h  1
  66 -2.5346141e-02 6.19e+00 3.23e+08  -6.0 8.92e+02    -  8.25e-02 3.91e-03h  1
  67 -2.5485894e-02 6.13e+00 3.20e+08  -6.0 9.59e+02    -  9.93e-02 9.46e-03h  1
  68r-2.5485894e-02 6.13e+00 1.00e+03   0.4 0.00e+00    -  0.00e+00 3.88e-07R  2
  69r-2.5482568e-02 6.13e+00 1.18e+04   0.4 1.12e+04    -  1.04e-06 9.04e-08f  1
iter    objective    inf_pr   inf_du lg(mu)  ||d||  lg(rg) alpha_du alpha_pr  ls
  70r-2.5482568e-02 6.13e+00 9.99e+02   0.4 0.00e+00    -  0.00e+00 4.83e-07R  3
  71r-2.5482113e-02 6.13e+00 2.14e+04   0.4 2.04e+04    -  6.83e-07 2.14e-08f  1
  72 -2.5480388e-02 6.13e+00 3.09e+06  -6.0 5.86e+02    -  3.39e-02 7.43e-05h  1
  73 -2.5514819e-02 6.12e+00 6.80e+07  -6.0 8.29e+02    -  7.57e-05 1.66e-03h  1
  74 -2.5526821e-02 6.12e+00 6.79e+07  -6.0 8.67e+02    -  1.58e-02 7.62e-04h  1
  75 -2.5581266e-02 6.10e+00 6.77e+07  -6.0 8.82e+02    -  2.82e-03 3.49e-03h  1
  76 -2.5608516e-02 6.02e+00 6.68e+07  -6.0 9.74e+02    -  7.33e-02 1.34e-02h  1
  77 -2.5598824e-02 5.91e+00 6.52e+07  -6.0 9.97e+02    -  2.10e-02 2.37e-02h  1
  78 -2.5597142e-02 5.88e+00 6.49e+07  -6.0 1.16e+03    -  3.40e-02 4.47e-03h  1
  79 -2.5606866e-02 5.82e+00 6.37e+07  -6.0 1.31e+03    -  2.61e-04 1.87e-02h  1
iter    objective    inf_pr   inf_du lg(mu)  ||d||  lg(rg) alpha_du alpha_pr  ls
  80 -2.5648509e-02 5.95e+00 6.23e+07  -6.0 1.52e+03    -  6.35e-05 2.12e-02h  1
  81 -2.5676909e-02 5.95e+00 6.20e+07  -6.0 1.67e+03    -  2.11e-02 5.57e-03h  1
  82 -2.5820274e-02 6.12e+00 6.09e+07  -6.0 1.85e+03    -  2.95e-02 1.81e-02h  1
  83r-2.5820274e-02 6.12e+00 1.00e+03   0.3 0.00e+00    -  0.00e+00 3.93e-07R  3
  84r-2.5819778e-02 6.12e+00 4.61e+03   0.3 2.30e+05    -  6.59e-08 5.40e-08f  1
  85r-2.5819778e-02 6.12e+00 9.99e+02   0.3 0.00e+00    -  0.00e+00 2.75e-07R  3
  86r-2.5819623e-02 6.12e+00 1.31e+04   0.3 1.63e+04    -  8.94e-07 7.85e-09f  1
  87 -2.5818733e-02 6.12e+00 3.19e+05  -6.0 5.08e+02    -  5.17e-03 3.85e-05h  1
  88r-2.5818733e-02 6.12e+00 1.00e+03   0.3 0.00e+00    -  0.00e+00 4.51e-08R  2
  89r-2.5542145e-02 6.12e+00 1.27e+04   0.3 1.93e+06    -  1.13e-08 1.16e-08f  1
iter    objective    inf_pr   inf_du lg(mu)  ||d||  lg(rg) alpha_du alpha_pr  ls
  90r-2.5539790e-02 6.12e+00 2.10e+04   0.3 1.53e+04    -  1.11e-06 1.28e-07f  1
  91 -2.5539766e-02 6.12e+00 5.79e+05  -6.0 5.48e+02    -  5.83e-03 1.56e-06h  3
  92 -2.5526993e-02 6.11e+00 4.09e+08  -6.0 7.69e+02    -  2.56e-06 1.80e-03h  1
  93 -2.5500368e-02 6.08e+00 4.07e+08  -6.0 7.64e+02    -  6.16e-03 3.87e-03h  1
  94 -2.5444274e-02 6.03e+00 4.04e+08  -6.0 7.56e+02    -  3.56e-03 8.43e-03h  1
  95 -2.3893928e-02 5.94e+00 3.98e+08  -6.0 5.55e+02    -  1.97e-06 1.59e-02h  1
  96 -2.3760819e-02 5.93e+00 3.96e+08  -6.0 6.49e+02    -  2.03e-02 2.66e-03h  1
  97 -2.3798931e-02 5.91e+00 3.95e+08  -6.0 7.84e+02    -  5.43e-02 3.61e-03h  1
  98 -2.3962790e-02 5.87e+00 3.93e+08  -6.0 8.54e+02    -  1.89e-02 6.31e-03h  1
  99 -2.4113321e-02 5.83e+00 3.89e+08  -6.0 7.90e+02    -  5.37e-05 8.14e-03h  1
iter    objective    inf_pr   inf_du lg(mu)  ||d||  lg(rg) alpha_du alpha_pr  ls
 100r-2.4113321e-02 5.83e+00 1.00e+03   0.3 0.00e+00    -  0.00e+00 2.54e-07R  3
 101r-2.4112413e-02 5.83e+00 5.20e+03   0.3 1.15e+04    -  1.98e-06 3.68e-08f  1
 102r-2.4112413e-02 5.83e+00 9.99e+02   0.3 0.00e+00    -  0.00e+00 2.50e-07R  3
 103r-2.4112130e-02 5.83e+00 1.46e+04   0.3 1.21e+04    -  1.59e-06 1.17e-08f  1
 104 -2.4111002e-02 5.83e+00 1.14e+06  -6.0 5.70e+02    -  1.57e-02 4.61e-05h  1
 105 -2.4099806e-02 5.83e+00 1.29e+07  -6.0 6.93e+02    -  4.75e-05 5.35e-04h  1
 106 -2.4094693e-02 5.82e+00 1.29e+07  -6.0 7.24e+02    -  3.58e-02 5.23e-04h  1
 107 -2.4134043e-02 5.81e+00 1.28e+07  -6.0 7.49e+02    -  1.12e-03 2.07e-03h  1
 108 -2.4155217e-02 5.81e+00 1.28e+07  -6.0 7.48e+02    -  2.55e-02 1.13e-03h  1
 109 -2.4145625e-02 5.77e+00 1.27e+07  -6.0 1.13e+03    -  4.90e-03 6.80e-03h  1
iter    objective    inf_pr   inf_du lg(mu)  ||d||  lg(rg) alpha_du alpha_pr  ls
 110 -2.4133504e-02 5.74e+00 1.27e+07  -6.0 1.13e+03    -  4.63e-02 4.98e-03h  1
 111 -2.4068409e-02 5.65e+00 1.24e+07  -6.0 1.09e+03    -  2.10e-02 1.97e-02h  1
 112r-2.4068409e-02 5.65e+00 1.00e+03   0.3 0.00e+00    -  0.00e+00 3.79e-07R  3
 113r-2.4068393e-02 5.65e+00 1.00e+03   0.3 1.09e+04    -  4.54e-08 7.77e-10f  2
 114r-2.4068393e-02 5.65e+00 9.99e+02   0.3 0.00e+00    -  0.00e+00 2.93e-07R  2
 115r-2.4068184e-02 5.65e+00 1.63e+03   0.3 1.15e+04    -  1.62e-06 6.22e-09f  1
 116 -2.4067493e-02 5.65e+00 2.33e+04  -6.0 4.44e+02    -  2.84e-03 2.94e-05h  1
 117 -2.4068634e-02 5.65e+00 7.22e+04  -6.0 6.87e+02    -  4.15e-05 1.27e-04h  1
 118 -2.4067245e-02 5.65e+00 7.63e+04  -6.0 8.37e+02    -  7.11e-03 1.15e-04h  1
 119 -2.4066239e-02 5.65e+00 7.76e+04  -6.0 1.03e+03    -  2.90e-04 3.81e-04h  1
iter    objective    inf_pr   inf_du lg(mu)  ||d||  lg(rg) alpha_du alpha_pr  ls
 120 -2.4065344e-02 5.65e+00 8.84e+04  -6.0 1.07e+03    -  1.50e-02 2.62e-04h  1
 121 -2.4024714e-02 5.61e+00 9.77e+04  -6.0 1.14e+03    -  9.69e-04 8.98e-03h  1
 122 -2.4019840e-02 5.61e+00 1.68e+05  -6.0 1.02e+03    -  1.92e-02 1.07e-03h  1
 123 -2.3984939e-02 5.59e+00 1.92e+05  -6.0 8.81e+02    -  1.11e-02 8.82e-03h  1
 124 -2.3985098e-02 5.58e+00 4.26e+05  -6.0 1.63e+03    -  1.76e-02 5.05e-03h  1
 125 -2.4024909e-02 5.67e+00 7.67e+05  -6.0 1.84e+03    -  2.97e-02 1.38e-02h  1
 126 -2.4090841e-02 5.72e+00 2.11e+06  -6.0 2.14e+03    -  5.98e-02 1.12e-02h  1
 127 -2.4099243e-02 5.71e+00 4.51e+06  -6.0 2.54e+03    -  8.22e-02 7.97e-03h  1
 128 -2.4002141e-02 5.68e+00 6.65e+06  -6.0 3.04e+03    -  7.28e-02 9.54e-03h  4
 129 -2.3812531e-02 5.64e+00 8.40e+06  -6.0 3.42e+03    -  6.26e-02 9.66e-03h  4
iter    objective    inf_pr   inf_du lg(mu)  ||d||  lg(rg) alpha_du alpha_pr  ls
 130 -2.3512682e-02 5.59e+00 1.03e+07  -6.0 3.64e+03    -  7.20e-02 1.18e-02h  2
 131 -2.3063858e-02 5.54e+00 1.31e+07  -6.0 3.77e+03    -  1.15e-01 1.52e-02h  3
 132 -2.2639085e-02 5.52e+00 1.57e+07  -6.0 3.83e+03    -  1.39e-01 1.29e-02h  3
 133 -2.2261154e-02 5.50e+00 1.76e+07  -6.0 3.81e+03    -  1.51e-01 1.11e-02h  3
 134 -2.1936345e-02 5.48e+00 1.89e+07  -6.0 3.74e+03    -  1.92e-01 9.50e-03h  3
 135 -2.1666412e-02 5.46e+00 1.91e+07  -6.0 3.67e+03    -  2.21e-01 7.99e-03h  3
 136 -2.1240741e-02 5.44e+00 1.89e+07  -6.0 3.57e+03    -  2.85e-03 1.33e-02h  2
 137 -2.0712660e-02 5.43e+00 1.86e+07  -6.0 3.35e+03    -  6.10e-03 1.57e-02h  1
 138 -2.0719890e-02 5.43e+00 1.89e+07  -6.0 2.79e+03    -  1.21e-02 2.37e-04h  1
 139 -2.1264387e-02 5.42e+00 1.82e+07  -6.0 2.80e+03    -  3.36e-03 1.79e-02h  3
iter    objective    inf_pr   inf_du lg(mu)  ||d||  lg(rg) alpha_du alpha_pr  ls
 140 -2.1722967e-02 5.40e+00 1.77e+07  -6.0 2.64e+03    -  1.21e-02 1.71e-02h  2
 141 -2.2199873e-02 5.37e+00 1.70e+07  -6.0 2.42e+03    -  1.18e-02 2.11e-02h  2
 142 -2.2681213e-02 5.30e+00 1.79e+07  -6.0 2.83e+03    -  9.20e-03 2.97e-02h  1
 143 -2.2836695e-02 5.18e+00 2.47e+07  -6.0 3.69e+03    -  8.61e-03 2.33e-02h  1
 144 -2.3048658e-02 5.05e+00 2.83e+07  -6.0 3.33e+03    -  2.33e-02 3.02e-02h  2
 145 -2.3439212e-02 5.09e+00 3.23e+07  -6.0 6.10e+03    -  3.52e-02 6.11e-03h  3
 146 -2.3494727e-02 4.96e+00 1.72e+07  -6.0 3.01e+03    -  4.88e-02 2.60e-02h  3
 147 -2.3310715e-02 4.93e+00 1.47e+07  -6.0 4.02e+03    -  8.98e-03 5.87e-03h  5
 148 -2.3167926e-02 4.93e+00 1.62e+07  -6.0 5.44e+03    -  2.06e-07 1.44e-03h  6
 149 -2.3611284e-02 5.08e+00 4.08e+07  -6.0 5.43e+02  -2.1 1.46e-03 1.87e-02h  1
iter    objective    inf_pr   inf_du lg(mu)  ||d||  lg(rg) alpha_du alpha_pr  ls
 150 -2.3633449e-02 4.96e+00 4.66e+07  -6.0 9.74e+02  -2.6 2.16e-02 2.99e-02h  1
 151r-2.3633449e-02 4.96e+00 1.00e+03   0.1 0.00e+00  -0.4 0.00e+00 2.18e-07R  2
 152r-2.3582300e-02 4.95e+00 1.00e+03   0.1 1.30e+04    -  6.04e-08 2.92e-06f  1
 153 -2.3581544e-02 4.95e+00 2.00e+00  -6.0 1.74e+02    -  9.54e-05 1.12e-04h  1
 154 -2.3580438e-02 4.95e+00 2.79e+00  -6.0 1.75e+02    -  3.64e-04 1.67e-04h  1
 155 -2.3581949e-02 4.95e+00 1.96e+05  -6.0 6.92e+02    -  8.96e-03 1.39e-04h  1
 156 -2.3590292e-02 4.94e+00 2.16e+06  -6.0 7.02e+02    -  8.97e-02 7.83e-04h  1
 157 -2.3587548e-02 4.94e+00 5.87e+06  -6.0 8.48e+02    -  1.36e-01 7.54e-04h  1
 158 -2.2937584e-02 4.56e+00 5.65e+06  -6.0 8.87e+02    -  1.22e-01 1.04e-01h  1
 159 -2.3490999e-02 4.24e+00 5.04e+06  -6.0 4.84e+02    -  4.09e-02 7.09e-02h  1
iter    objective    inf_pr   inf_du lg(mu)  ||d||  lg(rg) alpha_du alpha_pr  ls
 160 -2.3522772e-02 4.23e+00 5.25e+06  -6.0 4.83e+02    -  5.45e-02 2.13e-03h  1
 161 -2.4626518e-02 3.93e+00 5.04e+06  -6.0 4.74e+02    -  1.26e-01 7.42e-02h  1
 162 -2.7376797e-02 3.26e+00 2.33e+06  -6.0 4.49e+02    -  1.47e-03 1.91e-01h  1
 163 -2.9010551e-02 2.73e+00 1.92e+06  -6.0 3.80e+02    -  8.79e-04 1.74e-01h  1
 164 -3.0630336e-02 2.09e+00 1.43e+06  -6.0 2.78e+02    -  1.47e-01 2.57e-01h  1
 165 -3.0714886e-02 1.92e+00 1.33e+06  -6.0 1.53e+02    -  1.52e-01 6.79e-02h  1
 166 -3.0737517e-02 1.64e+00 1.18e+06  -6.0 1.27e+02    -  1.69e-01 1.18e-01h  1
 167r-3.0737517e-02 1.64e+00 1.00e+03  -0.3 0.00e+00    -  0.00e+00 1.99e-07R  2
 168r-3.0743451e-02 1.63e+00 1.00e+03  -0.3 2.39e+04    -  9.06e-07 1.01e-06f  1
 169 -3.0742383e-02 1.63e+00 4.45e+02  -6.0 4.48e+01    -  4.48e-04 4.89e-04h  1
iter    objective    inf_pr   inf_du lg(mu)  ||d||  lg(rg) alpha_du alpha_pr  ls
 170 -3.0742226e-02 1.63e+00 4.57e+03  -6.0 4.90e+01    -  5.09e-04 8.05e-05h  1
 171 -3.0735053e-02 1.63e+00 3.86e+03  -6.0 5.68e+01    -  8.67e-03 4.68e-03h  1
 172 -3.0731576e-02 1.62e+00 4.76e+03  -6.0 5.54e+01    -  5.63e-03 2.18e-03h  1
 173 -3.0724315e-02 1.61e+00 4.59e+03  -6.0 5.50e+01    -  1.57e-02 4.61e-03h  1
 174 -3.0713307e-02 1.61e+00 2.65e+04  -6.0 5.85e+01    -  2.28e-02 5.29e-03h  1
 175r-3.0713307e-02 1.61e+00 1.00e+03  -0.3 0.00e+00    -  0.00e+00 4.02e-07R  3
 176r-3.0713303e-02 1.61e+00 1.99e+03  -0.3 2.56e+05    -  9.25e-07 6.03e-10f  3
 177r-3.0713303e-02 1.61e+00 9.99e+02  -0.3 0.00e+00    -  0.00e+00 3.14e-07R  5
 178r-3.0713455e-02 1.61e+00 2.25e+03  -0.3 8.82e+03    -  2.44e-06 7.61e-08f  1
 179 -3.0711735e-02 1.61e+00 2.24e+01  -6.0 4.35e+01    -  1.72e-02 7.48e-04h  1
iter    objective    inf_pr   inf_du lg(mu)  ||d||  lg(rg) alpha_du alpha_pr  ls
 180 -3.0711208e-02 1.60e+00 2.66e+02  -6.0 4.31e+01    -  2.13e-02 2.11e-04h  1
 181 -3.0669212e-02 1.57e+00 5.61e+02  -6.0 4.21e+01    -  6.04e-02 1.93e-02h  1
 182 -3.0658994e-02 1.57e+00 7.00e+02  -6.0 4.45e+01    -  3.03e-02 5.15e-03h  1
 183 -3.0656630e-02 1.56e+00 3.05e+03  -6.0 5.08e+01    -  6.44e-03 1.94e-03h  1
 184 -3.0659257e-02 1.56e+00 2.38e+04  -6.0 8.19e+01    -  1.75e-02 3.13e-03h  1
 185 -3.0703418e-02 1.47e+00 2.72e+04  -6.0 8.15e+01    -  1.84e-02 5.35e-02h  1
 186 -3.0692815e-02 1.33e+00 4.25e+04  -6.0 6.68e+01    -  7.88e-02 9.47e-02h  1
 187 -2.9647440e-02 5.01e-01 1.22e+05  -6.0 3.91e+01    -  1.37e-01 5.75e-01h  1
 188 -2.5041730e-02 2.48e-01 4.46e+06  -6.0 1.93e+02    -  1.40e-02 3.83e-01h  1
 189 -2.5021554e-02 2.25e-01 4.04e+06  -6.0 1.87e+01    -  1.67e-03 9.28e-02h  1
iter    objective    inf_pr   inf_du lg(mu)  ||d||  lg(rg) alpha_du alpha_pr  ls
 190 -2.4961358e-02 1.62e-01 2.91e+06  -6.0 1.60e+01    -  1.00e-01 2.80e-01h  1
 191 -2.4905452e-02 1.18e-01 2.11e+06  -6.0 9.74e+00    -  1.20e-01 2.73e-01h  1
 192 -2.4906538e-02 7.95e-02 1.41e+06  -6.0 9.75e+00    -  8.15e-01 3.29e-01h  1
 193 -2.5173659e-02 2.39e-02 3.56e+05  -6.0 1.77e+01    -  2.39e-01 7.42e-01h  1
 194 -2.5220037e-02 1.16e-02 1.72e+05  -6.0 2.65e+00    -  9.57e-01 5.17e-01h  1
 195 -2.7318650e-02 6.34e-02 1.36e+05  -6.0 1.18e+02    -  1.15e-01 2.08e-01h  1
 196 -3.1949523e-02 2.74e-01 4.64e+04  -6.0 8.48e+01    -  3.31e-02 6.43e-01h  1
 197 -3.5346998e-02 8.78e-02 2.93e+03  -6.0 4.63e+01    -  3.32e-02 1.00e+00f  1
 198 -3.8236530e-02 4.59e-02 5.68e+01  -6.0 4.02e+01    -  6.59e-01 1.00e+00h  1
 199 -3.9576021e-02 4.34e-02 5.12e+01  -6.0 1.50e+02    -  9.40e-02 9.31e-02h  1
iter    objective    inf_pr   inf_du lg(mu)  ||d||  lg(rg) alpha_du alpha_pr  ls
 200 -4.8505908e-02 4.47e-01 1.87e+02  -6.0 1.41e+02    -  1.85e-01 9.26e-01f  1
 201 -4.8508573e-02 4.43e-01 1.86e+02  -6.0 1.87e-01  -0.8 2.47e-02 8.96e-03h  1
 202 -4.8510030e-02 4.26e-01 1.81e+02  -6.0 2.31e-01  -1.3 7.01e-02 3.80e-02h  1
 203 -4.8511563e-02 4.19e-01 1.80e+02  -6.0 3.13e-01  -1.8 5.48e-02 1.64e-02h  1
 204 -4.8513057e-02 4.06e-01 1.79e+02  -6.0 8.70e-01  -2.3 1.58e-01 3.24e-02h  1
 205 -4.8523141e-02 3.56e-01 1.61e+02  -6.0 8.47e-01  -2.8 2.17e-01 1.22e-01h  1
 206 -4.8638528e-02 2.35e-03 2.53e+01  -6.0 6.67e-01  -3.2 5.84e-01 1.00e+00h  1
 207 -4.8747242e-02 3.95e-04 3.37e+00  -6.0 4.34e-01  -3.7 8.39e-01 1.00e+00h  1
 208 -4.8755480e-02 3.83e-04 6.82e+00  -6.0 1.53e+00  -4.2 8.46e-01 5.20e-02h  1
 209 -4.8977332e-02 1.12e-02 8.57e-01  -6.0 1.51e+00  -4.7 7.59e-01 1.00e+00f  1
iter    objective    inf_pr   inf_du lg(mu)  ||d||  lg(rg) alpha_du alpha_pr  ls
 210 -4.9852030e-02 2.17e-01 1.60e+01  -6.0 4.71e+00  -5.1 3.99e-01 1.00e+00h  1
 211 -5.0573139e-02 1.95e-01 6.30e+00  -6.0 1.26e+01  -5.6 4.80e-01 3.80e-01h  1
 212 -5.1192651e-02 8.16e-01 2.85e+01  -6.0 3.30e+01  -6.1 2.09e-01 1.62e-01f  1
 213 -5.1920397e-02 7.38e-01 3.02e+02  -6.0 9.42e+01  -6.6 3.24e-01 9.68e-02h  1
 214 -5.6730363e-02 4.26e+00 1.93e+02  -6.0 2.92e+02  -7.0 2.12e-01 2.36e-01h  1
 215 -6.4636388e-02 4.66e+00 1.71e+02  -6.0 1.75e+03  -7.5 7.13e-02 7.31e-02h  1
 216 -6.4689079e-02 4.57e+00 2.03e+02  -6.0 1.61e+02  -7.1 1.77e-01 1.86e-02h  1
 217 -6.6633411e-02 6.06e+00 1.07e+02  -6.0 4.46e+02  -7.6 5.64e-02 1.47e-01f  1
 218 -6.9010990e-02 1.28e+01 9.69e+01  -6.0 5.63e+03  -8.1 8.09e-03 1.74e-02h  1
 219 -7.4561900e-02 3.15e+01 4.51e+02  -6.0 3.49e+02  -7.6 1.82e-01 5.14e-01h  1
iter    objective    inf_pr   inf_du lg(mu)  ||d||  lg(rg) alpha_du alpha_pr  ls
 220 -7.5037636e-02 3.11e+01 3.14e+02  -6.0 4.20e+02  -8.1 8.78e-02 3.48e-02h  1
 221 -7.5052644e-02 3.11e+01 3.38e+02  -6.0 9.95e+02  -8.6 2.23e-01 8.95e-04h  1
 222 -7.5853773e-02 2.48e+01 2.68e+02  -6.0 4.53e+02  -8.2 1.92e-01 1.96e-01h  1
 223 -7.9014024e-02 1.58e+01 1.62e+02  -6.0 1.01e+03  -8.6 1.82e-01 3.43e-01h  1
 224 -8.6979983e-02 9.08e+00 2.29e+02  -6.0 6.87e+02  -8.2 1.24e-01 4.31e-01h  1
 225 -8.7156311e-02 7.91e+00 1.72e+03  -6.0 5.73e+01  -6.9 1.36e-02 1.29e-01h  1
 226 -8.7465908e-02 6.76e+00 8.58e+02  -6.0 8.46e+01  -7.4 3.84e-01 1.45e-01h  1
 227 -9.1025853e-02 3.35e+00 1.14e+03  -6.0 1.67e+02  -7.8 4.89e-01 7.26e-01h  1
 228 -9.2095340e-02 3.14e+00 2.65e+03  -6.0 4.51e+02  -8.3 3.11e-01 1.52e-01h  1
 229 -9.3739905e-02 2.77e+00 5.73e+03  -6.0 8.61e+02  -8.8 5.44e-01 1.69e-01h  1
iter    objective    inf_pr   inf_du lg(mu)  ||d||  lg(rg) alpha_du alpha_pr  ls
 230 -9.3847408e-02 2.79e+00 9.39e+03  -6.0 3.33e+04  -9.3 3.24e-02 3.40e-03h  1
 231 -9.7964284e-02 2.93e+00 3.97e+03  -6.0 8.07e+02  -8.8 2.97e-01 4.05e-01h  1
 232 -9.8962702e-02 2.76e+00 2.06e+04  -6.0 2.75e+03  -9.3 2.41e-01 6.97e-02h  1
 233 -9.9037320e-02 2.74e+00 1.20e+04  -6.0 7.44e+02  -8.9 1.03e-01 9.88e-03h  1
 234 -1.0133126e-01 2.52e+00 9.45e+05  -6.0 1.76e+03  -9.4 3.02e-03 1.71e-01h  1
 235 -1.0291138e-01 2.30e+00 7.43e+05  -6.0 7.53e+02  -8.9 1.37e-01 2.14e-01h  1
 236 -1.0440578e-01 2.21e+00 6.44e+05  -6.0 1.97e+03  -9.4 5.23e-01 1.33e-01h  1
 237 -1.0739923e-01 2.41e+00 3.45e+05  -6.0 8.74e+02  -9.0 9.23e-02 4.63e-01h  1
 238 -1.0880941e-01 6.83e+00 2.92e+05  -6.0 3.11e+03  -9.5 1.62e-01 1.54e-01h  1
 239 -1.0965560e-01 5.85e+00 2.15e+05  -6.0 7.54e+02  -9.0 1.13e-01 2.64e-01h  1
iter    objective    inf_pr   inf_du lg(mu)  ||d||  lg(rg) alpha_du alpha_pr  ls
 240 -1.0994915e-01 4.65e+00 1.69e+05  -6.0 3.09e+02  -8.6 3.55e-01 2.15e-01h  1
 241 -1.1320629e-01 1.71e+01 1.15e+03  -6.0 9.06e+02  -9.1 4.20e-01 1.00e+00h  1
 242 -1.1405768e-01 3.46e+00 1.18e+02  -6.0 3.45e+02  -8.7 3.97e-01 8.98e-01h  1
 243 -1.1554384e-01 1.08e+01 6.07e+01  -6.0 1.40e+03  -9.1 5.68e-01 4.85e-01h  1
 244 -1.1647501e-01 2.42e+01 6.05e+01  -6.0 2.96e+05  -9.6 1.03e-04 3.29e-03h  1
 245 -1.1774387e-01 2.33e+01 5.25e+01  -6.0 6.73e+03 -10.1 1.63e-02 1.32e-01f  1
 246 -1.1855159e-01 1.47e+01 3.30e+01  -6.0 1.34e+03  -9.7 2.53e-01 3.72e-01h  1
 247 -1.1856820e-01 1.42e+01 3.20e+01  -6.0 6.59e+02  -7.4 2.70e-02 3.15e-02h  1
 248 -1.1854524e-01 1.36e+00 2.98e+01  -6.0 3.44e+01  -7.9 3.24e-01 9.04e-01h  1
 249 -1.1858363e-01 7.16e-01 1.07e+01  -6.0 2.18e+01  -7.5 1.00e+00 4.74e-01h  1
iter    objective    inf_pr   inf_du lg(mu)  ||d||  lg(rg) alpha_du alpha_pr  ls
 250 -1.1861197e-01 5.74e-01 5.49e+01  -6.0 5.51e+01  -8.0 1.00e+00 1.99e-01h  1
 251 -1.1879806e-01 2.46e-01 3.96e+01  -6.0 1.00e+02  -8.4 8.12e-01 5.75e-01h  1
 252 -1.1935740e-01 1.73e-01 1.89e+01  -6.0 2.84e+02  -8.9 7.51e-01 1.00e+00h  1
 253 -1.1944357e-01 1.77e-01 3.24e+01  -6.0 1.35e+03  -8.5 1.60e-02 1.50e-02h  1
 254 -1.1998190e-01 3.96e-01 5.07e+01  -6.0 3.13e+02  -9.0 1.00e+00 1.00e+00h  1
 255 -1.2026250e-01 4.88e-01 8.48e+01  -6.0 8.35e+02  -9.5 2.74e-01 2.12e-01h  1
 256 -1.2135762e-01 1.93e+00 8.26e+02  -6.0 1.99e+03  -9.9 2.90e-01 4.28e-01h  1
 257 -1.2172961e-01 1.87e+00 3.49e+03  -6.0 6.74e+03 -10.4 2.03e-01 7.47e-02h  1
 258 -1.2328623e-01 4.23e+00 4.43e+03  -6.0 2.47e+03 -10.0 3.50e-01 6.11e-01h  1
 259 -1.2393786e-01 2.98e+00 1.91e+06  -6.0 1.04e+03  -9.6 5.35e-03 6.13e-01h  1
iter    objective    inf_pr   inf_du lg(mu)  ||d||  lg(rg) alpha_du alpha_pr  ls
 260 -1.2437142e-01 5.79e+00 1.78e+06  -6.0 1.67e+04 -10.0 2.06e-02 6.92e-02h  1
 261 -1.2449504e-01 5.15e+00 1.54e+06  -6.0 9.13e+02  -9.6 2.95e-01 1.36e-01h  1
 262 -1.2459644e-01 4.89e+00 1.43e+06  -6.0 1.97e+03 -10.1 6.69e-02 6.77e-02h  1
 263 -1.2512626e-01 6.37e+00 1.39e+06  -6.0 2.91e+04 -10.6 1.01e-02 2.82e-02h  1
 264 -1.2544443e-01 6.51e+00 1.14e+06  -6.0 1.26e+03 -10.1 2.19e-01 1.79e-01h  1
 265 -1.2598069e-01 1.65e+01 7.55e+05  -6.0 2.47e+03 -10.6 4.25e-01 3.39e-01h  1
 266 -1.2604256e-01 1.58e+01 7.15e+05  -6.0 9.02e+03    -  5.13e-02 5.40e-02h  1
 267 -1.2602435e-01 9.19e+00 4.05e+05  -6.0 1.40e+03 -10.2 4.06e-02 4.33e-01h  1
 268 -1.2607662e-01 5.73e+00 2.54e+05  -6.0 1.18e+02  -8.0 9.17e-02 3.72e-01h  1
 269 -1.2633411e-01 5.80e-01 8.01e+01  -6.0 9.10e+01  -8.4 6.28e-01 1.00e+00h  1
iter    objective    inf_pr   inf_du lg(mu)  ||d||  lg(rg) alpha_du alpha_pr  ls
 270 -1.2645186e-01 6.08e-01 4.81e+01  -6.0 3.60e+02  -8.9 6.82e-01 3.68e-01h  1
 271 -1.2668005e-01 9.98e-01 2.65e+01  -6.0 7.22e+02  -9.4 1.00e+00 3.74e-01h  1
 272 -1.2705721e-01 6.70e+00 4.57e+01  -6.0 8.06e+02  -9.9 1.00e+00 8.28e-01h  1
 273 -1.2734852e-01 5.20e+01 4.26e+02  -6.0 1.96e+05 -10.3 3.02e-03 8.79e-03h  1
 274 -1.2744689e-01 2.84e+01 2.18e+02  -6.0 2.86e+03    -  1.35e-01 5.61e-01h  1
 275 -1.2749715e-01 2.16e+01 1.41e+02  -6.0 7.27e+02  -9.9 4.00e-01 2.40e-01h  1
 276 -1.2758667e-01 1.49e+01 1.07e+02  -6.0 6.69e+02 -10.4 1.59e-01 3.12e-01h  1
 277 -1.2766445e-01 1.27e+01 7.64e+01  -6.0 1.47e+03    -  4.27e-01 1.53e-01h  1
 278 -1.2769245e-01 8.80e+00 5.04e+01  -6.0 1.36e+03    -  4.37e-01 3.45e-01h  1
 279 -1.2775748e-01 5.94e+00 5.97e+01  -6.0 8.65e+02    -  1.00e+00 4.09e-01h  1
iter    objective    inf_pr   inf_du lg(mu)  ||d||  lg(rg) alpha_du alpha_pr  ls
 280 -1.2777706e-01 5.31e+00 6.24e+01  -6.0 8.88e+02    -  2.71e-01 1.19e-01h  1
 281 -1.2795065e-01 4.61e+00 2.97e+01  -6.0 5.08e+02    -  1.00e+00 1.00e+00h  1
 282 -1.2804863e-01 2.98e+00 2.93e+01  -6.0 3.60e+02    -  6.51e-01 4.67e-01h  1
 283 -1.2820135e-01 2.66e+00 3.75e+01  -6.0 3.60e+02    -  1.00e+00 1.00e+00h  1
 284 -1.2826762e-01 3.87e+00 2.58e+01  -6.0 1.15e+02    -  4.52e-01 5.83e-01h  1
 285 -1.2830608e-01 2.87e+00 3.27e+02  -6.0 9.01e+02 -10.9 1.44e-01 2.71e-01h  2
 286 -1.2827151e-01 3.02e+00 1.31e+00  -6.0 4.19e+02 -10.4 1.00e+00 1.00e+00h  1
 287 -1.2826836e-01 2.96e+00 9.37e+01  -6.0 1.40e+03    -  1.00e+00 6.49e-02h  2
 288 -1.2821912e-01 1.38e+01 3.26e+00  -6.0 9.04e+02    -  1.00e+00 1.00e+00h  1
 289 -1.2822540e-01 8.64e-02 9.61e-02  -6.0 5.94e+01    -  1.00e+00 1.00e+00h  1
iter    objective    inf_pr   inf_du lg(mu)  ||d||  lg(rg) alpha_du alpha_pr  ls
 290 -1.2822518e-01 2.66e-03 1.83e-03  -6.0 1.27e+01    -  1.00e+00 1.00e+00h  1
 291 -1.2822519e-01 1.19e-07 2.55e-07  -6.0 8.31e-02    -  1.00e+00 1.00e+00h  1
 292 -1.2902068e-01 8.39e+00 4.12e+01  -7.5 3.39e+03    -  2.22e-01 3.01e-01f  1
 293 -1.2942333e-01 9.21e+00 2.75e+01  -7.5 3.51e+03    -  3.77e-01 2.33e-01h  1
 294 -1.2943896e-01 9.04e+00 1.29e+02  -7.5 5.63e+02 -10.0 4.00e-01 1.91e-02h  1
 295 -1.2948847e-01 4.62e+01 6.45e+01  -7.5 9.57e+04    -  1.03e-03 2.10e-02h  1
 296 -1.2970608e-01 3.62e+01 3.98e+01  -7.5 2.16e+03 -10.5 1.27e-01 2.37e-01h  1
 297 -1.2986319e-01 7.45e+01 5.66e+01  -7.5 1.13e+04 -11.0 1.92e-02 1.69e-01h  1
 298 -1.2990427e-01 7.00e+01 3.03e+01  -7.5 3.07e+03    -  1.90e-01 6.03e-02h  1
 299 -1.3003773e-01 5.50e+01 3.24e+01  -7.5 2.97e+03    -  3.76e-01 2.19e-01h  1
iter    objective    inf_pr   inf_du lg(mu)  ||d||  lg(rg) alpha_du alpha_pr  ls
 300 -1.3018113e-01 7.92e+01 1.89e+01  -7.5 5.80e+03    -  1.53e-01 3.09e-01h  1
 301 -1.3022227e-01 6.57e+01 2.81e+01  -7.5 1.37e+03 -10.5 5.73e-02 1.71e-01h  1
 302 -1.3023361e-01 6.06e+01 1.83e+01  -7.5 6.32e+02 -10.1 2.79e-01 7.74e-02h  1
 303 -1.3026404e-01 4.15e+01 1.55e+01  -7.5 2.56e+02  -9.7 1.57e-01 3.16e-01h  1
 304 -1.3034838e-01 1.28e+01 5.67e+01  -7.5 6.43e+02 -10.2 3.07e-02 6.92e-01h  1
 305 -1.3038301e-01 1.06e+01 4.35e+01  -7.5 1.09e+03 -10.6 2.18e-01 1.68e-01h  1
 306 -1.3040578e-01 7.05e+00 2.55e+01  -7.5 9.65e+01  -9.3 3.95e-01 3.37e-01h  1
 307 -1.3043064e-01 5.47e+00 1.09e+01  -7.5 7.03e+02  -9.8 4.99e-01 2.23e-01h  1
 308 -1.3044623e-01 3.93e+00 5.22e+00  -7.5 2.07e+02  -9.4 4.38e-01 2.82e-01h  1
 309 -1.3045435e-01 2.96e+00 4.39e+00  -7.5 6.89e+01  -8.9 1.80e-01 2.47e-01h  1
iter    objective    inf_pr   inf_du lg(mu)  ||d||  lg(rg) alpha_du alpha_pr  ls
 310 -1.3046871e-01 2.29e+00 2.67e+00  -7.5 3.19e+02  -9.4 1.00e+00 2.25e-01h  1
 311 -1.3049033e-01 2.50e-01 2.65e-01  -7.5 9.65e+01  -9.0 7.55e-01 8.96e-01h  1
 312 -1.3054160e-01 1.57e+00 2.61e-01  -7.5 5.60e+02  -9.5 3.24e-01 4.35e-01h  1
 313 -1.3053445e-01 1.56e+00 5.57e+01  -7.5 1.40e+03  -9.9 2.14e-01 2.18e-02h  2
 314 -1.3057561e-01 1.26e+01 2.27e+01  -7.5 1.09e+04    -  1.27e-02 9.29e-02h  1
 315 -1.3058310e-01 1.46e+01 2.74e+01  -7.5 1.71e+04    -  3.81e-02 2.62e-02h  1
 316 -1.3058765e-01 1.45e+01 1.54e+02  -7.5 8.13e+03    -  3.08e-01 1.13e-02h  1
 317 -1.3069653e-01 1.84e+01 8.67e+01  -7.5 3.43e+03    -  2.73e-01 3.30e-01h  1
 318 -1.3072825e-01 2.12e+01 5.64e+01  -7.5 7.25e+03    -  1.40e-02 7.47e-02h  1
 319 -1.3072966e-01 2.08e+01 7.87e+01  -7.5 1.27e+03    -  5.52e-02 1.66e-02f  1
iter    objective    inf_pr   inf_du lg(mu)  ||d||  lg(rg) alpha_du alpha_pr  ls
 320 -1.3073897e-01 1.96e+01 5.22e+01  -7.5 1.23e+03    -  2.33e-02 6.40e-02h  1
 321 -1.3076029e-01 2.22e+01 4.49e+01  -7.5 2.10e+04    -  1.87e-03 2.19e-02f  1
 322 -1.3076040e-01 2.22e+01 2.22e+02  -7.5 1.01e+03    -  2.25e-01 2.00e-03h  1
 323 -1.3076639e-01 2.08e+01 2.34e+02  -7.5 9.01e+02    -  1.13e-01 5.96e-02h  1
 324 -1.3077036e-01 2.05e+01 2.24e+02  -7.5 3.70e+03    -  2.95e-03 1.68e-02h  1
 325 -1.3081902e-01 3.57e+01 1.84e+02  -7.5 1.10e+04    -  5.93e-02 9.73e-02h  1
 326 -1.3086049e-01 3.98e+01 1.32e+02  -7.5 4.16e+03    -  1.80e-01 2.05e-01h  1
 327 -1.3089789e-01 4.00e+01 2.32e+02  -7.5 3.61e+03    -  3.59e-01 1.91e-01h  1
 328 -1.3090330e-01 3.84e+01 5.13e+02  -7.5 1.14e+03    -  4.25e-01 4.20e-02h  1
 329 -1.3095918e-01 3.23e+01 2.41e+02  -7.5 1.83e+03    -  2.73e-01 4.02e-01h  1
iter    objective    inf_pr   inf_du lg(mu)  ||d||  lg(rg) alpha_du alpha_pr  ls
 330 -1.3103254e-01 3.18e+01 3.96e+02  -7.5 1.76e+03    -  3.97e-03 5.70e-01h  1
 331 -1.3106083e-01 2.71e+01 2.56e+02  -7.5 1.67e+03 -10.4 3.58e-02 2.65e-01h  1
 332 -1.3109080e-01 1.30e+01 2.04e+03  -7.5 3.45e+02 -10.9 7.69e-02 5.22e-01h  1
 333 -1.3111652e-01 1.75e+01 5.27e+04  -7.5 3.47e+03 -11.4 3.55e-03 1.73e-01h  1
 334 -1.3113027e-01 3.37e+01 3.98e+04  -7.5 4.78e+03 -11.9 6.34e-02 2.46e-01h  1
 335 -1.3113828e-01 3.37e+01 3.97e+04  -7.5 1.90e+05    -  1.31e-02 1.78e-03h  1
 336 -1.3113667e-01 2.98e+01 3.44e+04  -7.5 7.63e+03 -12.3 2.06e-01 1.33e-01h  1
 337 -1.3114413e-01 2.13e+01 2.41e+04  -7.5 4.36e+02    -  1.51e-01 2.99e-01h  1
 338 -1.3115314e-01 1.63e+01 1.81e+04  -7.5 4.68e+02    -  4.80e-01 2.49e-01h  1
 339 -1.3116294e-01 1.23e+01 1.36e+04  -7.5 1.73e+02    -  7.56e-01 2.48e-01h  1
iter    objective    inf_pr   inf_du lg(mu)  ||d||  lg(rg) alpha_du alpha_pr  ls
 340 -1.3119183e-01 4.69e+00 5.20e+03  -7.5 1.79e+02    -  9.06e-01 6.18e-01h  1
 341 -1.3119946e-01 4.24e+00 4.71e+03  -7.5 5.06e+02    -  6.51e-02 9.54e-02h  1
 342 -1.3123580e-01 4.64e+00 3.37e+03  -7.5 1.08e+03    -  4.70e-02 3.72e-01h  1
 343 -1.3124054e-01 4.79e+00 2.19e+06  -7.5 4.83e+03 -11.9 5.02e-05 2.28e-02h  1
 344 -1.3124415e-01 4.26e+00 1.94e+06  -7.5 6.54e+02 -11.5 3.04e-02 1.12e-01h  1
 345 -1.3125176e-01 3.88e+00 1.02e+06  -7.5 6.53e+02 -12.0 2.01e-01 4.76e-01h  1
 346 -1.3125098e-01 3.99e+00 1.02e+06  -7.5 1.59e+05    -  3.83e-05 5.18e-04h  2
 347 -1.3125025e-01 4.00e+00 1.00e+06  -7.5 3.87e+03 -11.5 1.58e-02 1.61e-02h  3
 348 -1.3125214e-01 3.92e+00 9.41e+05  -7.5 1.87e+03 -12.0 1.00e+00 6.14e-02h  1
 349 -1.3125172e-01 3.82e+00 8.56e+05  -7.5 1.65e+03    -  2.50e-01 8.98e-02h  1
iter    objective    inf_pr   inf_du lg(mu)  ||d||  lg(rg) alpha_du alpha_pr  ls
 350 -1.3125327e-01 3.41e+00 4.28e+05  -7.5 5.86e+02    -  2.61e-04 5.00e-01h  2
 351 -1.3125382e-01 3.38e+00 4.19e+05  -7.5 2.49e+03 -12.5 7.83e-01 2.08e-02h  6
 352 -1.3125747e-01 2.49e+00 2.49e+02  -7.5 3.81e+02    -  1.00e+00 1.00e+00h  1
 353 -1.3129577e-01 2.32e+00 1.71e+02  -7.5 6.03e+02 -11.2 2.83e-01 3.07e-01h  1
 354 -1.3129579e-01 2.29e+00 1.60e+02  -7.5 1.30e+03 -11.6 3.99e-01 6.25e-02h  5
 355 -1.3131983e-01 5.41e+00 3.83e+01  -7.5 5.55e+02 -11.2 1.00e+00 1.00e+00h  1
 356 -1.3132699e-01 2.88e+00 1.67e+01  -7.5 3.95e+02 -10.8 7.62e-01 1.00e+00h  1
 357 -1.3135914e-01 4.93e+01 3.54e+02  -7.5 5.11e+03 -11.3 1.24e-02 2.81e-01H  1
 358 -1.3135437e-01 5.57e+01 8.02e+02  -7.5 3.11e+03    -  7.41e-02 1.00e+00H  1
 359 -1.3136864e-01 3.00e+01 2.77e+02  -7.5 1.32e+03 -10.8 1.71e-01 1.00e+00h  1
iter    objective    inf_pr   inf_du lg(mu)  ||d||  lg(rg) alpha_du alpha_pr  ls
 360 -1.3139627e-01 1.21e+01 2.37e+02  -7.5 7.42e+02 -10.4 9.99e-01 9.92e-01h  1
 361 -1.3138114e-01 3.57e+00 4.99e+01  -7.5 4.21e+02    -  2.57e-01 1.00e+00h  1
 362 -1.3139849e-01 6.69e+00 3.21e+01  -7.5 2.09e+03    -  8.21e-01 2.05e-01h  1
 363 -1.3139881e-01 1.56e-02 1.57e+01  -7.5 3.37e+01    -  6.38e-01 1.00e+00h  1
 364 -1.3139849e-01 9.23e-04 5.59e-01  -7.5 6.57e+00    -  1.00e+00 1.00e+00h  1
 365 -1.3139847e-01 3.84e-07 6.60e-05  -7.5 1.82e-01    -  1.00e+00 1.00e+00h  1
 366 -1.3139848e-01 4.58e-10 2.68e-11  -7.5 3.48e-04    -  1.00e+00 1.00e+00h  1
 367 -1.3140090e-01 1.05e+00 3.60e+00  -9.0 2.56e+02    -  5.12e-01 5.02e-01h  1
 368 -1.3140189e-01 7.17e-01 3.17e+00  -9.0 1.24e+02    -  9.11e-01 8.23e-01h  1
 369 -1.3140177e-01 3.14e-02 1.42e-01  -9.0 5.22e+01    -  7.34e-01 1.00e+00h  1
iter    objective    inf_pr   inf_du lg(mu)  ||d||  lg(rg) alpha_du alpha_pr  ls
 370 -1.3140176e-01 2.22e-05 1.26e-06  -9.0 1.35e+00 -10.9 1.00e+00 1.00e+00h  1
 371 -1.3140179e-01 7.10e-02 8.13e-03  -9.0 5.51e+02    -  1.81e-01 1.00e+00H  1
 372 -1.3140179e-01 1.26e-03 3.01e-07  -9.0 1.03e+01 -11.4 1.00e+00 1.00e+00h  1
 373 -1.3140179e-01 1.24e-02 4.21e-07  -9.0 3.24e+01 -11.8 1.00e+00 1.00e+00h  1
 374 -1.3140180e-01 1.52e-01 5.26e-06  -9.0 1.14e+02 -12.3 1.00e+00 1.00e+00h  1
 375 -1.3140180e-01 8.08e-01 1.24e-03  -9.0 8.48e+02 -12.8 2.41e-01 1.25e-01h  4
 376 -1.3140183e-01 1.95e-03 2.73e-05  -9.0 2.51e+02 -12.4 1.00e+00 1.00e+00H  1
 377 -1.3140195e-01 1.29e-02 1.30e-02  -9.0 9.36e+02 -12.8 1.46e-01 1.00e+00H  1
 378 -1.3140202e-01 2.52e+00 9.51e-05  -9.0 4.52e+02 -12.4 1.00e+00 1.00e+00h  1
 379 -1.3140257e-01 9.41e+01 3.26e-03  -9.0 3.15e+03 -12.9 8.19e-01 8.73e-01h  1
iter    objective    inf_pr   inf_du lg(mu)  ||d||  lg(rg) alpha_du alpha_pr  ls
 380 -1.3140239e-01 1.72e+01 8.13e-04  -9.0 1.20e+03    -  1.00e+00 1.00e+00h  1
 381 -1.3140278e-01 1.67e+01 1.24e-03  -9.0 1.11e+03 -12.5 1.00e+00 1.00e+00h  1
 382 -1.3140366e-01 7.61e+01 5.08e-03  -9.0 8.15e+03 -12.9 2.46e-01 2.64e-01h  1
 383 -1.3140474e-01 6.31e+01 4.46e-01  -9.0 1.98e+03    -  1.95e-02 1.00e+00h  1
 384 -1.3140481e-01 5.99e+01 3.84e-01  -9.0 2.20e+03    -  3.01e-01 5.47e-02h  1
 385 -1.3140600e-01 5.53e+01 7.03e-03  -9.0 1.78e+03    -  1.00e+00 1.00e+00h  1
 386 -1.3140639e-01 4.27e+01 4.17e-01  -9.0 1.66e+03    -  2.83e-01 3.32e-01h  1
 387 -1.3140733e-01 3.98e+01 6.49e+00  -9.0 1.64e+03    -  3.13e-01 7.43e-01h  1
 388 -1.3140886e-01 4.52e+01 5.38e+02  -9.0 1.48e+03    -  1.94e-02 1.00e+00h  1
 389 -1.3141059e-01 2.33e+01 1.21e+01  -9.0 9.99e+02 -11.6 4.07e-01 1.00e+00h  1
iter    objective    inf_pr   inf_du lg(mu)  ||d||  lg(rg) alpha_du alpha_pr  ls
 390 -1.3141194e-01 3.31e+01 1.06e+01  -9.0 6.22e+03 -12.1 2.43e-01 1.19e-01h  1
 391 -1.3141069e-01 9.19e+00 3.91e-01  -9.0 6.49e+02    -  1.54e-01 1.00e+00h  1
 392 -1.3141176e-01 1.83e+01 3.96e-01  -9.0 4.75e+04    -  2.12e-02 1.34e-02h  1
 393 -1.3141207e-01 3.16e-04 5.19e-03  -9.0 1.98e+01    -  1.00e+00 1.00e+00h  1
 394 -1.3141206e-01 2.47e-05 3.27e-05  -9.0 1.01e+00    -  1.00e+00 1.00e+00h  1
 395 -1.3141206e-01 4.95e-10 1.10e-11  -9.0 4.55e-03    -  1.00e+00 1.00e+00h  1

Number of Iterations....: 395

                                   (scaled)                 (unscaled)
Objective...............:  -1.3141206055511839e-01   -1.3141206055511839e-01
Dual infeasibility......:   1.1014024892693982e-11    1.1014024892693982e-11
Constraint violation....:   3.0548445446431510e-10    4.9476511776447296e-10
Complementarity.........:   9.0909094482561004e-10    9.0909094482561004e-10
Overall NLP error.......:   9.0909094482561004e-10    9.0909094482561004e-10


Number of objective function evaluations             = 666
Number of objective gradient evaluations             = 395
Number of equality constraint evaluations            = 666
Number of inequality constraint evaluations          = 667
Number of equality constraint Jacobian evaluations   = 415
Number of inequality constraint Jacobian evaluations = 415
Number of Lagrangian Hessian evaluations             = 395
Total CPU secs in IPOPT (w/o function evaluations)   =    167.395
Total CPU secs in NLP function evaluations           =      6.951

EXIT: Optimal Solution Found.
